p tw 30 43
e 0 6
e 0 7
e 0 22
e 0 26
e 1 10
e 2 11
e 2 14
e 2 21
e 2 23
e 3 5
e 3 7
e 3 12
e 4 8
e 4 11
e 4 14
e 4 21
e 4 22
e 5 12
e 7 10
e 7 25
e 7 29
e 8 15
e 9 18
e 9 21
e 9 28
e 9 29
e 10 13
e 10 16
e 11 12
e 12 13
e 13 17
e 13 20
e 13 21
e 13 22
e 13 25
e 14 19
e 14 26
e 15 26
e 16 27
e 18 25
e 23 25
e 23 26
e 24 27
